0 5246.19
1 5131.22
2 5118.38
3 5097.21
4 5035.87
5 5035.87
6 5035.87
7 5035.87
8 4989.72
9 4989.72
10 4989.72
11 4989.72
12 4989.72
13 4989.72
14 4978.09
15 4978.09
16 4978.09
17 4978.09
18 4963.20
19 4963.20
20 4959.97
21 4959.97
22 4959.97
23 4959.97
24 4947.84
25 4947.84
26 4947.84
27 4947.84
28 4947.84
29 4947.84
30 4947.84
31 4947.84
32 4947.84
33 4947.84
34 4947.84
35 4947.84
36 4947.84
37 4947.84
38 4934.01
39 4934.01
40 4934.01
41 4932.59
42 4932.59
43 4932.59
44 4932.59
45 4932.59
46 4932.59
47 4932.59
48 4932.59
49 4932.59
50 4932.59
51 4932.59
52 4931.15
53 4930.31
54 4930.31
55 4930.31
56 4930.31
57 4930.31
58 4930.31
59 4930.31
60 4930.31
61 4930.31
62 4930.31
63 4930.31
64 4930.31
65 4930.31
66 4916.67
67 4916.67
68 4916.67
69 4916.67
70 4916.67
71 4916.67
72 4916.67
73 4916.67
74 4901.63
75 4901.29
76 4901.29
77 4901.29
78 4901.29
79 4901.29
80 4901.29
81 4901.29
82 4901.29
83 4901.29
84 4901.29
85 4901.29
86 4893.70
87 4893.70
88 4893.70
89 4893.70
90 4893.70
91 4893.70
92 4893.70
93 4867.84
94 4867.84
95 4867.84
96 4867.84
97 4867.84
98 4867.84
99 4867.84
100 4867.84
101 4867.84
102 4867.84
103 4867.84
104 4867.84
105 4867.84
106 4867.84
107 4867.84
108 4867.84
109 4867.84
110 4842.23
111 4842.23
112 4842.23
113 4842.23
114 4841.49
115 4841.49
116 4841.49
117 4841.49
118 4841.49
119 4841.49
120 4841.49
121 4841.49
122 4841.49
123 4841.49
124 4841.49
125 4841.49
126 4841.49
127 4841.49
128 4841.49
129 4841.49
130 4841.49
131 4841.49
132 4841.49
133 4841.49
134 4841.49
135 4841.49
136 4841.49
137 4841.49
138 4841.49
139 4841.49
140 4832.14
141 4832.14
142 4832.14
143 4832.14
144 4832.14
145 4832.14
146 4832.14
147 4832.14
148 4832.14
149 4832.14
150 4832.14
151 4832.14
152 4832.14
153 4832.14
154 4832.14
155 4832.14
156 4832.14
157 4832.14
158 4832.14
159 4832.14
160 4832.14
161 4832.14
162 4832.14
163 4832.14
164 4819.67
165 4819.67
166 4819.67
167 4819.67
168 4819.67
169 4819.67
170 4819.67
171 4819.67
172 4819.67
173 4819.67
174 4819.67
175 4819.67
176 4819.67
177 4819.67
178 4819.67
179 4819.67
180 4819.67
181 4819.67
182 4819.67
183 4819.67
184 4819.67
185 4819.67
186 4819.67
187 4817.98
188 4817.98
189 4817.98
190 4817.98
191 4817.98
192 4817.98
193 4817.98
194 4817.98
195 4817.98
196 4817.98
197 4817.98
198 4817.98
199 4817.98
200 4817.98
201 4817.98
202 4817.98
203 4817.98
204 4817.98
205 4817.98
206 4817.98
207 4817.98
208 4817.98
209 4817.98
210 4817.98
211 4817.98
212 4817.98
213 4817.98
214 4817.98
215 4817.98
216 4817.98
217 4817.98
218 4817.98
219 4817.98
220 4817.98
221 4817.98
222 4817.98
223 4817.98
224 4817.98
225 4817.98
226 4817.98
227 4817.98
228 4817.98
229 4817.98
230 4817.98
231 4817.98
232 4817.98
233 4817.98
234 4817.98
235 4817.98
236 4817.98
237 4817.98
238 4817.98
239 4817.98
240 4817.98
241 4817.98
242 4817.37
243 4817.37
244 4817.37
245 4817.37
246 4817.37
247 4817.37
248 4817.37
249 4817.37
250 4817.37
251 4817.37
252 4817.37
253 4817.37
254 4817.37
255 4817.37
256 4817.37
257 4817.37
258 4817.37
259 4817.37
260 4817.37
261 4817.37
262 4817.37
263 4817.37
264 4817.37
265 4817.37
266 4817.37
267 4817.37
268 4817.37
269 4817.37
270 4817.37
271 4817.37
272 4817.37
273 4817.37
274 4817.37
275 4817.37
276 4817.37
277 4817.37
278 4817.37
279 4817.37
280 4817.37
281 4817.37
282 4817.37
283 4817.37
284 4817.37
285 4817.37
286 4817.37
287 4817.37
288 4817.37
289 4817.37
290 4817.37
291 4817.37
292 4817.37
293 4816.88
294 4816.88
295 4816.88
296 4816.88
297 4816.88
298 4816.88
299 4816.88
300 4816.88
301 4816.88
302 4816.88
303 4816.88
304 4816.88
305 4816.88
306 4816.88
307 4816.88
308 4816.88
309 4816.88
310 4816.88
311 4816.88
312 4816.88
313 4816.88
314 4816.88
315 4816.88
316 4816.88
317 4816.88
318 4816.88
319 4816.88
320 4816.88
321 4816.88
322 4816.88
323 4816.88
324 4816.88
325 4816.88
326 4816.88
327 4816.88
328 4816.88
329 4816.88
330 4815.53
331 4815.53
332 4815.53
333 4815.53
334 4815.53
335 4815.53
336 4815.53
337 4815.53
338 4815.53
339 4815.53
340 4815.53
341 4815.53
342 4815.53
343 4815.53
344 4815.53
345 4815.53
346 4815.53
347 4815.53
348 4815.53
349 4815.53
350 4815.53
351 4815.53
352 4815.53
353 4815.53
354 4815.53
355 4815.53
356 4815.53
357 4815.53
358 4815.53
359 4815.53
360 4815.53
361 4815.53
362 4815.53
363 4815.53
364 4815.53
365 4815.53
366 4815.53
367 4815.53
368 4815.53
369 4815.53
370 4815.53
371 4815.53
372 4815.53
373 4815.53
374 4815.53
375 4815.53
376 4815.53
377 4815.53
378 4815.53
379 4815.53
380 4815.53
381 4815.53
382 4815.53
383 4815.53
384 4815.53
385 4815.53
386 4815.53
387 4815.53
388 4815.53
389 4815.53
390 4815.53
391 4815.53
392 4815.53
393 4815.53
394 4815.53
395 4815.53
396 4815.53
397 4815.53
398 4815.53
399 4815.53
400 4815.53
401 4815.53
402 4815.53
403 4815.53
404 4815.53
405 4815.53
406 4815.53
407 4815.53
408 4815.53
409 4815.53
410 4815.53
411 4815.53
412 4815.53
413 4815.53
414 4815.53
415 4815.53
416 4807.28
417 4807.28
418 4807.28
419 4807.28
420 4807.28
421 4807.28
422 4807.28
423 4807.28
424 4807.28
425 4807.28
426 4807.28
427 4807.28
428 4807.28
429 4807.28
430 4807.28
431 4807.28
432 4807.28
433 4807.28
434 4807.28
435 4807.28
436 4807.28
437 4807.28
438 4807.28
439 4807.28
440 4807.28
441 4807.28
442 4807.28
443 4807.28
444 4807.28
445 4807.28
446 4807.28
447 4807.28
448 4807.28
449 4807.28
450 4807.28
451 4807.28
452 4807.28
453 4807.28
454 4807.28
455 4807.28
456 4807.28
457 4807.28
458 4807.28
459 4807.28
460 4807.28
461 4807.28
462 4807.28
463 4807.28
464 4807.28
465 4807.28
466 4807.28
467 4807.28
468 4807.28
469 4807.28
470 4807.28
471 4807.28
472 4807.28
473 4807.28
474 4807.28
475 4807.28
476 4807.28
477 4807.28
478 4807.28
479 4807.18
480 4807.18
481 4807.18
482 4807.18
483 4807.18
484 4807.18
485 4807.18
486 4807.18
487 4807.18
488 4807.18
489 4807.18
490 4807.18
491 4807.18
492 4807.18
493 4807.18
494 4807.18
495 4807.18
496 4807.18
497 4807.18
498 4807.18
499 4807.18
2 7 7 4 0 0 